Cost: 800
0-12-10-26-0
0-51-3-9-0
0-23-43-22-1-0
0-11-53-4-0
0-44-18-24-49-0
0-17-40-39-0
0-32-25-31-0
0-7-35-14-19-0
0-21-28-2-0
0-27-13-15-45-0
0-29-48-30-0
0-34-52-8-46-0
0-16-33-6-0
Cost: 800
0-30-48-29-0
0-19-14-35-7-0
0-11-53-4-0
0-1-22-43-23-0
0-34-52-8-46-0
0-17-40-39-0
0-32-25-31-0
0-27-13-15-45-0
0-24-18-50-44-0
0-12-10-26-0
0-21-28-2-0
0-6-33-16-0
0-51-3-9-0
Cost: 800
0-16-33-6-0
0-19-14-35-7-0
0-46-8-52-34-0
0-32-25-31-0
0-4-53-11-0
0-12-10-26-0
0-21-28-2-0
0-49-24-18-44-0
0-22-1-43-23-0
0-9-3-51-0
0-45-15-13-27-0
0-29-48-30-0
0-39-40-17-0
Cost: 800
0-21-28-2-0
0-27-13-15-45-0
0-16-33-6-0
0-12-10-26-0
0-23-43-22-1-0
0-24-18-50-44-0
0-32-25-31-0
0-7-35-14-19-0
0-51-3-9-0
0-17-40-39-0
0-46-8-52-34-0
0-30-48-29-0
0-11-53-4-0
Cost: 800
0-30-48-29-0
0-11-53-4-0
0-21-28-2-0
0-12-10-26-0
0-34-52-8-46-0
0-23-43-1-22-0
0-6-33-16-0
0-51-3-9-0
0-19-14-35-7-0
0-27-13-15-45-0
0-44-50-18-24-0
0-17-40-39-0
0-31-25-32-0
Cost: 800
0-27-13-15-45-0
0-17-40-39-0
0-1-22-43-23-0
0-46-8-52-34-0
0-51-3-9-0
0-19-14-35-7-0
0-4-53-11-0
0-44-50-18-24-0
0-26-10-12-0
0-21-28-2-0
0-29-48-30-0
0-6-33-16-0
0-31-25-32-0
Cost: 800
0-19-14-35-7-0
0-30-48-29-0
0-44-50-18-24-0
0-46-8-52-34-0
0-16-33-6-0
0-23-43-22-1-0
0-39-40-17-0
0-2-28-21-0
0-4-53-11-0
0-45-15-13-27-0
0-26-10-12-0
0-31-25-32-0
0-9-3-51-0
Cost: 800
0-32-25-31-0
0-9-3-51-0
0-11-53-4-0
0-27-13-15-45-0
0-1-22-43-23-0
0-24-18-50-44-0
0-30-48-29-0
0-19-14-35-7-0
0-17-40-39-0
0-2-28-21-0
0-12-10-26-0
0-16-33-6-0
0-34-52-8-46-0
Cost: 800
0-29-48-30-0
0-24-18-50-44-0
0-11-53-4-0
0-39-40-17-0
0-1-22-43-23-0
0-12-10-26-0
0-34-52-8-46-0
0-9-3-51-0
0-19-14-35-7-0
0-21-28-2-0
0-16-33-6-0
0-27-13-15-45-0
0-31-25-32-0
Cost: 800
0-9-3-51-0
0-12-10-26-0
0-39-40-17-0
0-29-48-30-0
0-24-18-50-44-0
0-45-15-13-27-0
0-34-52-8-46-0
0-19-14-35-7-0
0-2-28-21-0
0-1-22-43-23-0
0-31-25-32-0
0-11-53-4-0
0-6-33-16-0
Cost: 800
0-29-48-30-0
0-1-22-43-23-0
0-44-50-18-24-0
0-9-3-51-0
0-21-28-2-0
0-4-53-11-0
0-7-35-14-19-0
0-16-33-6-0
0-27-13-15-45-0
0-46-8-52-34-0
0-12-10-26-0
0-39-40-17-0
0-32-25-31-0
Cost: 800
0-31-25-32-0
0-27-13-15-45-0
0-12-10-26-0
0-39-40-17-0
0-6-33-16-0
0-51-3-9-0
0-34-52-8-46-0
0-29-48-30-0
0-24-18-50-44-0
0-23-43-22-1-0
0-21-28-2-0
0-19-14-35-7-0
0-11-53-4-0
Cost: 800
0-29-48-30-0
0-9-3-51-0
0-44-50-18-24-0
0-6-33-16-0
0-31-25-32-0
0-1-22-43-23-0
0-45-15-13-27-0
0-34-52-8-46-0
0-21-28-2-0
0-19-14-35-7-0
0-26-10-12-0
0-39-40-17-0
0-11-53-4-0
Cost: 800
0-16-33-6-0
0-12-10-26-0
0-27-13-15-45-0
0-44-50-18-24-0
0-34-52-8-46-0
0-21-28-2-0
0-7-35-14-19-0
0-9-3-51-0
0-29-48-30-0
0-11-53-4-0
0-31-25-32-0
0-23-43-22-1-0
0-39-40-17-0
Cost: 800
0-26-10-12-0
0-30-48-29-0
0-51-3-9-0
0-39-40-17-0
0-45-15-13-27-0
0-31-25-32-0
0-6-33-16-0
0-24-18-50-44-0
0-19-14-35-7-0
0-34-52-8-46-0
0-1-22-43-23-0
0-21-28-2-0
0-4-53-11-0
Cost: 800
0-11-53-4-0
0-21-28-2-0
0-6-33-16-0
0-39-40-17-0
0-34-52-8-46-0
0-19-14-35-7-0
0-23-43-22-1-0
0-24-18-50-44-0
0-9-3-51-0
0-27-13-15-45-0
0-32-25-31-0
0-29-48-30-0
0-12-10-26-0
Cost: 800
0-9-3-51-0
0-12-10-26-0
0-32-25-31-0
0-46-8-52-34-0
0-24-18-50-44-0
0-23-43-1-22-0
0-11-53-4-0
0-21-28-2-0
0-19-14-35-7-0
0-16-33-6-0
0-39-40-17-0
0-27-13-15-45-0
0-30-48-29-0
Cost: 800
0-11-53-4-0
0-9-3-51-0
0-17-40-39-0
0-29-48-30-0
0-46-8-52-34-0
0-31-25-32-0
0-19-14-35-7-0
0-6-33-16-0
0-26-10-12-0
0-27-13-15-45-0
0-21-28-2-0
0-23-43-22-1-0
0-44-50-18-24-0
Cost: 800
0-11-53-4-0
0-39-40-17-0
0-12-10-26-0
0-23-43-22-1-0
0-51-3-9-0
0-34-52-8-46-0
0-2-28-21-0
0-16-33-6-0
0-29-48-30-0
0-27-13-15-45-0
0-19-14-35-7-0
0-24-18-50-44-0
0-31-25-32-0
Cost: 800
0-9-3-51-0
0-11-53-4-0
0-12-10-26-0
0-45-15-13-27-0
0-19-14-35-7-0
0-49-24-18-44-0
0-31-25-32-0
0-16-33-6-0
0-29-48-30-0
0-17-40-39-0
0-2-28-21-0
0-46-8-52-34-0
0-1-22-43-23-0
Cost: 800
0-12-10-26-0
0-11-53-4-0
0-31-25-32-0
0-7-35-14-19-0
0-51-3-9-0
0-27-13-15-45-0
0-39-40-17-0
0-21-28-2-0
0-23-43-1-22-0
0-34-52-8-46-0
0-16-33-6-0
0-44-50-18-24-0
0-30-48-29-0
Cost: 800
0-32-25-31-0
0-7-35-14-19-0
0-9-3-51-0
0-29-48-30-0
0-17-40-39-0
0-16-33-6-0
0-12-10-26-0
0-23-43-22-1-0
0-24-18-50-44-0
0-4-53-11-0
0-2-28-21-0
0-46-8-52-34-0
0-27-13-15-45-0
Cost: 800
0-45-15-13-27-0
0-2-28-21-0
0-16-33-6-0
0-46-8-52-34-0
0-29-48-30-0
0-7-35-14-19-0
0-9-3-51-0
0-31-25-32-0
0-4-53-11-0
0-22-1-43-23-0
0-39-40-17-0
0-12-10-26-0
0-24-18-50-44-0
Cost: 800
0-23-43-1-22-0
0-44-18-24-49-0
0-6-33-16-0
0-26-10-12-0
0-46-8-52-34-0
0-27-13-15-45-0
0-21-28-2-0
0-11-53-4-0
0-9-3-51-0
0-7-35-14-19-0
0-39-40-17-0
0-30-48-29-0
0-32-25-31-0
Cost: 800
0-11-53-4-0
0-9-3-51-0
0-17-40-39-0
0-29-48-30-0
0-46-8-52-34-0
0-31-25-32-0
0-19-14-35-7-0
0-6-33-16-0
0-26-10-12-0
0-27-13-15-45-0
0-21-28-2-0
0-23-43-22-1-0
0-44-50-18-24-0
Cost: 800
0-39-40-17-0
0-23-43-22-1-0
0-21-28-2-0
0-30-48-29-0
0-4-53-11-0
0-44-50-18-24-0
0-45-15-13-27-0
0-51-3-9-0
0-6-33-16-0
0-7-35-14-19-0
0-32-25-31-0
0-46-8-52-34-0
0-26-10-12-0
Cost: 800
0-19-14-35-7-0
0-51-3-9-0
0-34-52-8-46-0
0-26-10-12-0
0-39-40-17-0
0-2-28-21-0
0-16-33-6-0
0-44-50-18-24-0
0-11-53-4-0
0-29-48-30-0
0-23-43-22-1-0
0-32-25-31-0
0-27-13-15-45-0
Cost: 0
Cost: 0
Cost: 0
Cost: 0
